* carte map6.map
+1 x1 +1 x37 +1 x73 +1 x109 +1 x145 +1 x181 +1 x217 +1 x253 +1 x7 +1 x43 +1 x79 +1 x115 +1 x151 +1 x187 +1 x223 +1 x259 +1 x13 +1 x49 +1 x85 +1 x121 +1 x157 +1 x193 +1 x229 +1 x265 +1 x19 +1 x55 +1 x91 +1 x127 +1 x163 +1 x199 +1 x235 +1 x271 +1 x25 +1 x61 +1 x97 +1 x133 +1 x169 +1 x205 +1 x241 +1 x277 +1 x31 +1 x67 +1 x103 +1 x139 +1 x175 +1 x211 +1 x247 +1 x283 = 4; * comptage total de T
+1 x2 +1 x38 +1 x74 +1 x110 +1 x146 +1 x182 +1 x218 +1 x254 +1 x8 +1 x44 +1 x80 +1 x116 +1 x152 +1 x188 +1 x224 +1 x260 +1 x14 +1 x50 +1 x86 +1 x122 +1 x158 +1 x194 +1 x230 +1 x266 +1 x20 +1 x56 +1 x92 +1 x128 +1 x164 +1 x200 +1 x236 +1 x272 +1 x26 +1 x62 +1 x98 +1 x134 +1 x170 +1 x206 +1 x242 +1 x278 +1 x32 +1 x68 +1 x104 +1 x140 +1 x176 +1 x212 +1 x248 +1 x284 = 5; * comptage total de S
+1 x3 +1 x39 +1 x75 +1 x111 +1 x147 +1 x183 +1 x219 +1 x255 +1 x9 +1 x45 +1 x81 +1 x117 +1 x153 +1 x189 +1 x225 +1 x261 +1 x15 +1 x51 +1 x87 +1 x123 +1 x159 +1 x195 +1 x231 +1 x267 +1 x21 +1 x57 +1 x93 +1 x129 +1 x165 +1 x201 +1 x237 +1 x273 +1 x27 +1 x63 +1 x99 +1 x135 +1 x171 +1 x207 +1 x243 +1 x279 +1 x33 +1 x69 +1 x105 +1 x141 +1 x177 +1 x213 +1 x249 +1 x285 = 4; * comptage total de C
+1 x5 +1 x41 +1 x77 +1 x113 +1 x149 +1 x185 +1 x221 +1 x257 +1 x11 +1 x47 +1 x83 +1 x119 +1 x155 +1 x191 +1 x227 +1 x263 +1 x17 +1 x53 +1 x89 +1 x125 +1 x161 +1 x197 +1 x233 +1 x269 +1 x23 +1 x59 +1 x95 +1 x131 +1 x167 +1 x203 +1 x239 +1 x275 +1 x29 +1 x65 +1 x101 +1 x137 +1 x173 +1 x209 +1 x245 +1 x281 +1 x35 +1 x71 +1 x107 +1 x143 +1 x179 +1 x215 +1 x251 +1 x287 = 29; * comptage total de s
+1 x6 +1 x42 +1 x78 +1 x114 +1 x150 +1 x186 +1 x222 +1 x258 +1 x12 +1 x48 +1 x84 +1 x120 +1 x156 +1 x192 +1 x228 +1 x264 +1 x18 +1 x54 +1 x90 +1 x126 +1 x162 +1 x198 +1 x234 +1 x270 +1 x24 +1 x60 +1 x96 +1 x132 +1 x168 +1 x204 +1 x240 +1 x276 +1 x30 +1 x66 +1 x102 +1 x138 +1 x174 +1 x210 +1 x246 +1 x282 +1 x36 +1 x72 +1 x108 +1 x144 +1 x180 +1 x216 +1 x252 +1 x288 = 19; * comptage total de l
+1 x1 +1 x2 +1 x3 +1 x4 = 1; * unicite animal case (0,0)
+1 x5 +1 x6 = 1; * unicite type terrain case (0,0)
+1 ~x2 +1 x5 >= 1; * non requin ou eau (0,0)
+1 ~x1 +1 x6 >= 1; * non tigre ou terre (0,0)
+1 x37 +1 x38 +1 x39 +1 x40 = 1; * unicite animal case (0,1)
+1 x41 +1 x42 = 1; * unicite type terrain case (0,1)
+1 ~x38 +1 x41 >= 1; * non requin ou eau (0,1)
+1 ~x37 +1 x42 >= 1; * non tigre ou terre (0,1)
+1 x73 +1 x74 +1 x75 +1 x76 = 1; * unicite animal case (0,2)
+1 x77 +1 x78 = 1; * unicite type terrain case (0,2)
+1 ~x74 +1 x77 >= 1; * non requin ou eau (0,2)
+1 ~x73 +1 x78 >= 1; * non tigre ou terre (0,2)
+1 x109 +1 x110 +1 x111 +1 x112 = 1; * unicite animal case (0,3)
+1 x113 +1 x114 = 1; * unicite type terrain case (0,3)
+1 ~x110 +1 x113 >= 1; * non requin ou eau (0,3)
+1 ~x109 +1 x114 >= 1; * non tigre ou terre (0,3)
+1 x145 +1 x146 +1 x147 +1 x148 = 1; * unicite animal case (0,4)
+1 x149 +1 x150 = 1; * unicite type terrain case (0,4)
+1 ~x146 +1 x149 >= 1; * non requin ou eau (0,4)
+1 ~x145 +1 x150 >= 1; * non tigre ou terre (0,4)
+1 x181 +1 x182 +1 x183 +1 x184 = 1; * unicite animal case (0,5)
+1 x185 +1 x186 = 1; * unicite type terrain case (0,5)
+1 ~x182 +1 x185 >= 1; * non requin ou eau (0,5)
+1 ~x181 +1 x186 >= 1; * non tigre ou terre (0,5)
+1 x217 +1 x218 +1 x219 +1 x220 = 1; * unicite animal case (0,6)
+1 x221 +1 x222 = 1; * unicite type terrain case (0,6)
+1 ~x218 +1 x221 >= 1; * non requin ou eau (0,6)
+1 ~x217 +1 x222 >= 1; * non tigre ou terre (0,6)
+1 x253 +1 x254 +1 x255 +1 x256 = 1; * unicite animal case (0,7)
+1 x257 +1 x258 = 1; * unicite type terrain case (0,7)
+1 ~x254 +1 x257 >= 1; * non requin ou eau (0,7)
+1 ~x253 +1 x258 >= 1; * non tigre ou terre (0,7)
+1 x7 +1 x8 +1 x9 +1 x10 = 1; * unicite animal case (1,0)
+1 x11 +1 x12 = 1; * unicite type terrain case (1,0)
+1 ~x8 +1 x11 >= 1; * non requin ou eau (1,0)
+1 ~x7 +1 x12 >= 1; * non tigre ou terre (1,0)
+1 x43 +1 x44 +1 x45 +1 x46 = 1; * unicite animal case (1,1)
+1 x47 +1 x48 = 1; * unicite type terrain case (1,1)
+1 ~x44 +1 x47 >= 1; * non requin ou eau (1,1)
+1 ~x43 +1 x48 >= 1; * non tigre ou terre (1,1)
+1 x79 +1 x80 +1 x81 +1 x82 = 1; * unicite animal case (1,2)
+1 x83 +1 x84 = 1; * unicite type terrain case (1,2)
+1 ~x80 +1 x83 >= 1; * non requin ou eau (1,2)
+1 ~x79 +1 x84 >= 1; * non tigre ou terre (1,2)
+1 x115 +1 x116 +1 x117 +1 x118 = 1; * unicite animal case (1,3)
+1 x119 +1 x120 = 1; * unicite type terrain case (1,3)
+1 ~x116 +1 x119 >= 1; * non requin ou eau (1,3)
+1 ~x115 +1 x120 >= 1; * non tigre ou terre (1,3)
+1 x151 +1 x152 +1 x153 +1 x154 = 1; * unicite animal case (1,4)
+1 x155 +1 x156 = 1; * unicite type terrain case (1,4)
+1 ~x152 +1 x155 >= 1; * non requin ou eau (1,4)
+1 ~x151 +1 x156 >= 1; * non tigre ou terre (1,4)
+1 x187 +1 x188 +1 x189 +1 x190 = 1; * unicite animal case (1,5)
+1 x191 +1 x192 = 1; * unicite type terrain case (1,5)
+1 ~x188 +1 x191 >= 1; * non requin ou eau (1,5)
+1 ~x187 +1 x192 >= 1; * non tigre ou terre (1,5)
+1 x223 +1 x224 +1 x225 +1 x226 = 1; * unicite animal case (1,6)
+1 x227 +1 x228 = 1; * unicite type terrain case (1,6)
+1 ~x224 +1 x227 >= 1; * non requin ou eau (1,6)
+1 ~x223 +1 x228 >= 1; * non tigre ou terre (1,6)
+1 x259 +1 x260 +1 x261 +1 x262 = 1; * unicite animal case (1,7)
+1 x263 +1 x264 = 1; * unicite type terrain case (1,7)
+1 ~x260 +1 x263 >= 1; * non requin ou eau (1,7)
+1 ~x259 +1 x264 >= 1; * non tigre ou terre (1,7)
+1 x13 +1 x14 +1 x15 +1 x16 = 1; * unicite animal case (2,0)
+1 x17 +1 x18 = 1; * unicite type terrain case (2,0)
+1 ~x14 +1 x17 >= 1; * non requin ou eau (2,0)
+1 ~x13 +1 x18 >= 1; * non tigre ou terre (2,0)
+1 x49 +1 x50 +1 x51 +1 x52 = 1; * unicite animal case (2,1)
+1 x53 +1 x54 = 1; * unicite type terrain case (2,1)
+1 ~x50 +1 x53 >= 1; * non requin ou eau (2,1)
+1 ~x49 +1 x54 >= 1; * non tigre ou terre (2,1)
+1 x85 +1 x86 +1 x87 +1 x88 = 1; * unicite animal case (2,2)
+1 x89 +1 x90 = 1; * unicite type terrain case (2,2)
+1 ~x86 +1 x89 >= 1; * non requin ou eau (2,2)
+1 ~x85 +1 x90 >= 1; * non tigre ou terre (2,2)
+1 x121 +1 x122 +1 x123 +1 x124 = 1; * unicite animal case (2,3)
+1 x125 +1 x126 = 1; * unicite type terrain case (2,3)
+1 ~x122 +1 x125 >= 1; * non requin ou eau (2,3)
+1 ~x121 +1 x126 >= 1; * non tigre ou terre (2,3)
+1 x157 +1 x158 +1 x159 +1 x160 = 1; * unicite animal case (2,4)
+1 x161 +1 x162 = 1; * unicite type terrain case (2,4)
+1 ~x158 +1 x161 >= 1; * non requin ou eau (2,4)
+1 ~x157 +1 x162 >= 1; * non tigre ou terre (2,4)
+1 x193 +1 x194 +1 x195 +1 x196 = 1; * unicite animal case (2,5)
+1 x197 +1 x198 = 1; * unicite type terrain case (2,5)
+1 ~x194 +1 x197 >= 1; * non requin ou eau (2,5)
+1 ~x193 +1 x198 >= 1; * non tigre ou terre (2,5)
+1 x229 +1 x230 +1 x231 +1 x232 = 1; * unicite animal case (2,6)
+1 x233 +1 x234 = 1; * unicite type terrain case (2,6)
+1 ~x230 +1 x233 >= 1; * non requin ou eau (2,6)
+1 ~x229 +1 x234 >= 1; * non tigre ou terre (2,6)
+1 x265 +1 x266 +1 x267 +1 x268 = 1; * unicite animal case (2,7)
+1 x269 +1 x270 = 1; * unicite type terrain case (2,7)
+1 ~x266 +1 x269 >= 1; * non requin ou eau (2,7)
+1 ~x265 +1 x270 >= 1; * non tigre ou terre (2,7)
+1 x19 +1 x20 +1 x21 +1 x22 = 1; * unicite animal case (3,0)
+1 x23 +1 x24 = 1; * unicite type terrain case (3,0)
+1 ~x20 +1 x23 >= 1; * non requin ou eau (3,0)
+1 ~x19 +1 x24 >= 1; * non tigre ou terre (3,0)
+1 x55 +1 x56 +1 x57 +1 x58 = 1; * unicite animal case (3,1)
+1 x59 +1 x60 = 1; * unicite type terrain case (3,1)
+1 ~x56 +1 x59 >= 1; * non requin ou eau (3,1)
+1 ~x55 +1 x60 >= 1; * non tigre ou terre (3,1)
+1 x91 +1 x92 +1 x93 +1 x94 = 1; * unicite animal case (3,2)
+1 x95 +1 x96 = 1; * unicite type terrain case (3,2)
+1 ~x92 +1 x95 >= 1; * non requin ou eau (3,2)
+1 ~x91 +1 x96 >= 1; * non tigre ou terre (3,2)
+1 x127 +1 x128 +1 x129 +1 x130 = 1; * unicite animal case (3,3)
+1 x131 +1 x132 = 1; * unicite type terrain case (3,3)
+1 ~x128 +1 x131 >= 1; * non requin ou eau (3,3)
+1 ~x127 +1 x132 >= 1; * non tigre ou terre (3,3)
+1 x163 +1 x164 +1 x165 +1 x166 = 1; * unicite animal case (3,4)
+1 x167 +1 x168 = 1; * unicite type terrain case (3,4)
+1 ~x164 +1 x167 >= 1; * non requin ou eau (3,4)
+1 ~x163 +1 x168 >= 1; * non tigre ou terre (3,4)
+1 x199 +1 x200 +1 x201 +1 x202 = 1; * unicite animal case (3,5)
+1 x203 +1 x204 = 1; * unicite type terrain case (3,5)
+1 ~x200 +1 x203 >= 1; * non requin ou eau (3,5)
+1 ~x199 +1 x204 >= 1; * non tigre ou terre (3,5)
+1 x235 +1 x236 +1 x237 +1 x238 = 1; * unicite animal case (3,6)
+1 x239 +1 x240 = 1; * unicite type terrain case (3,6)
+1 ~x236 +1 x239 >= 1; * non requin ou eau (3,6)
+1 ~x235 +1 x240 >= 1; * non tigre ou terre (3,6)
+1 x271 +1 x272 +1 x273 +1 x274 = 1; * unicite animal case (3,7)
+1 x275 +1 x276 = 1; * unicite type terrain case (3,7)
+1 ~x272 +1 x275 >= 1; * non requin ou eau (3,7)
+1 ~x271 +1 x276 >= 1; * non tigre ou terre (3,7)
+1 x25 +1 x26 +1 x27 +1 x28 = 1; * unicite animal case (4,0)
+1 x29 +1 x30 = 1; * unicite type terrain case (4,0)
+1 ~x26 +1 x29 >= 1; * non requin ou eau (4,0)
+1 ~x25 +1 x30 >= 1; * non tigre ou terre (4,0)
+1 x61 +1 x62 +1 x63 +1 x64 = 1; * unicite animal case (4,1)
+1 x65 +1 x66 = 1; * unicite type terrain case (4,1)
+1 ~x62 +1 x65 >= 1; * non requin ou eau (4,1)
+1 ~x61 +1 x66 >= 1; * non tigre ou terre (4,1)
+1 x97 +1 x98 +1 x99 +1 x100 = 1; * unicite animal case (4,2)
+1 x101 +1 x102 = 1; * unicite type terrain case (4,2)
+1 ~x98 +1 x101 >= 1; * non requin ou eau (4,2)
+1 ~x97 +1 x102 >= 1; * non tigre ou terre (4,2)
+1 x133 +1 x134 +1 x135 +1 x136 = 1; * unicite animal case (4,3)
+1 x137 +1 x138 = 1; * unicite type terrain case (4,3)
+1 ~x134 +1 x137 >= 1; * non requin ou eau (4,3)
+1 ~x133 +1 x138 >= 1; * non tigre ou terre (4,3)
+1 x169 +1 x170 +1 x171 +1 x172 = 1; * unicite animal case (4,4)
+1 x173 +1 x174 = 1; * unicite type terrain case (4,4)
+1 ~x170 +1 x173 >= 1; * non requin ou eau (4,4)
+1 ~x169 +1 x174 >= 1; * non tigre ou terre (4,4)
+1 x205 +1 x206 +1 x207 +1 x208 = 1; * unicite animal case (4,5)
+1 x209 +1 x210 = 1; * unicite type terrain case (4,5)
+1 ~x206 +1 x209 >= 1; * non requin ou eau (4,5)
+1 ~x205 +1 x210 >= 1; * non tigre ou terre (4,5)
+1 x241 +1 x242 +1 x243 +1 x244 = 1; * unicite animal case (4,6)
+1 x245 +1 x246 = 1; * unicite type terrain case (4,6)
+1 ~x242 +1 x245 >= 1; * non requin ou eau (4,6)
+1 ~x241 +1 x246 >= 1; * non tigre ou terre (4,6)
+1 x277 +1 x278 +1 x279 +1 x280 = 1; * unicite animal case (4,7)
+1 x281 +1 x282 = 1; * unicite type terrain case (4,7)
+1 ~x278 +1 x281 >= 1; * non requin ou eau (4,7)
+1 ~x277 +1 x282 >= 1; * non tigre ou terre (4,7)
+1 x31 +1 x32 +1 x33 +1 x34 = 1; * unicite animal case (5,0)
+1 x35 +1 x36 = 1; * unicite type terrain case (5,0)
+1 ~x32 +1 x35 >= 1; * non requin ou eau (5,0)
+1 ~x31 +1 x36 >= 1; * non tigre ou terre (5,0)
+1 x67 +1 x68 +1 x69 +1 x70 = 1; * unicite animal case (5,1)
+1 x71 +1 x72 = 1; * unicite type terrain case (5,1)
+1 ~x68 +1 x71 >= 1; * non requin ou eau (5,1)
+1 ~x67 +1 x72 >= 1; * non tigre ou terre (5,1)
+1 x103 +1 x104 +1 x105 +1 x106 = 1; * unicite animal case (5,2)
+1 x107 +1 x108 = 1; * unicite type terrain case (5,2)
+1 ~x104 +1 x107 >= 1; * non requin ou eau (5,2)
+1 ~x103 +1 x108 >= 1; * non tigre ou terre (5,2)
+1 x139 +1 x140 +1 x141 +1 x142 = 1; * unicite animal case (5,3)
+1 x143 +1 x144 = 1; * unicite type terrain case (5,3)
+1 ~x140 +1 x143 >= 1; * non requin ou eau (5,3)
+1 ~x139 +1 x144 >= 1; * non tigre ou terre (5,3)
+1 x175 +1 x176 +1 x177 +1 x178 = 1; * unicite animal case (5,4)
+1 x179 +1 x180 = 1; * unicite type terrain case (5,4)
+1 ~x176 +1 x179 >= 1; * non requin ou eau (5,4)
+1 ~x175 +1 x180 >= 1; * non tigre ou terre (5,4)
+1 x211 +1 x212 +1 x213 +1 x214 = 1; * unicite animal case (5,5)
+1 x215 +1 x216 = 1; * unicite type terrain case (5,5)
+1 ~x212 +1 x215 >= 1; * non requin ou eau (5,5)
+1 ~x211 +1 x216 >= 1; * non tigre ou terre (5,5)
+1 x247 +1 x248 +1 x249 +1 x250 = 1; * unicite animal case (5,6)
+1 x251 +1 x252 = 1; * unicite type terrain case (5,6)
+1 ~x248 +1 x251 >= 1; * non requin ou eau (5,6)
+1 ~x247 +1 x252 >= 1; * non tigre ou terre (5,6)
+1 x283 +1 x284 +1 x285 +1 x286 = 1; * unicite animal case (5,7)
+1 x287 +1 x288 = 1; * unicite type terrain case (5,7)
+1 ~x284 +1 x287 >= 1; * non requin ou eau (5,7)
+1 ~x283 +1 x288 >= 1; * non tigre ou terre (5,7)
+1 x4 = 1; * case de depart (0,0)
+1 x4 = 1; * R sur la case 0,0
+1 x1 +1 x2 +1 x3  = 0; * les autres animaux ne sont pas sur la case 0,0
+1 x5 = 1; * case sea  (0,0)
+1 x6 = 0; * case non land  (0,0)
+1 x37 +1 x7 +1 x43 = 0; * voisinage animal T de la case (0,0)
+1 x38 +1 x8 +1 x44 = 0; * voisinage animal S de la case (0,0)
+1 x39 +1 x9 +1 x45 = 0; * voisinage animal C de la case (0,0)
+1 x41 = 1; * case sea  (0,1)
+1 x42 = 0; * case non land  (0,1)
+1 x11 = 1; * case sea  (1,0)
+1 x12 = 0; * case non land  (1,0)
+1 x47 = 1; * case sea  (1,1)
+1 x48 = 0; * case non land  (1,1)
+1 x46 = 1; * R sur la case 1,1
+1 x43 +1 x44 +1 x45  = 0; * les autres animaux ne sont pas sur la case 1,1
+1 x1 +1 x37 +1 x73 +1 x7 +1 x79 +1 x13 +1 x49 +1 x85 = 1; * voisinage animal T de la case (1,1)
+1 x2 +1 x38 +1 x74 +1 x8 +1 x80 +1 x14 +1 x50 +1 x86 = 2; * voisinage animal S de la case (1,1)
+1 x3 +1 x39 +1 x75 +1 x9 +1 x81 +1 x15 +1 x51 +1 x87 = 1; * voisinage animal C de la case (1,1)
+1 x77 = 1; * case sea  (0,2)
+1 x78 = 0; * case non land  (0,2)
+1 x84 = 1; * case land (1,2)
+1 x83 = 0; * case non sea  (1,2)
+1 x17 = 1; * case sea  (2,0)
+1 x18 = 0; * case non land  (2,0)
+1 x54 = 1; * case land (2,1)
+1 x53 = 0; * case non sea  (2,1)
+1 x90 = 1; * case land (2,2)
+1 x89 = 0; * case non sea  (2,2)
+1 x14 = 1; * S sur la case 2,0
+1 x13 +1 x15 +1 x16  = 0; * les autres animaux ne sont pas sur la case 2,0
+1 x74 = 1; * S sur la case 0,2
+1 x73 +1 x75 +1 x76  = 0; * les autres animaux ne sont pas sur la case 0,2
+1 x10 = 1; * R sur la case 1,0
+1 x7 +1 x8 +1 x9  = 0; * les autres animaux ne sont pas sur la case 1,0
+1 x1 +1 x37 +1 x43 +1 x13 +1 x49 = 0; * voisinage animal T de la case (1,0)
+1 x2 +1 x38 +1 x44 +1 x14 +1 x50 = 1; * voisinage animal S de la case (1,0)
+1 x3 +1 x39 +1 x45 +1 x15 +1 x51 = 0; * voisinage animal C de la case (1,0)
+1 x52 = 1; * R sur la case 2,1
+1 x49 +1 x50 +1 x51  = 0; * les autres animaux ne sont pas sur la case 2,1
+1 x7 +1 x43 +1 x79 +1 x13 +1 x85 +1 x19 +1 x55 +1 x91 = 1; * voisinage animal T de la case (2,1)
+1 x8 +1 x44 +1 x80 +1 x14 +1 x86 +1 x20 +1 x56 +1 x92 = 1; * voisinage animal S de la case (2,1)
+1 x9 +1 x45 +1 x81 +1 x15 +1 x87 +1 x21 +1 x57 +1 x93 = 1; * voisinage animal C de la case (2,1)
+1 x23 = 1; * case sea  (3,0)
+1 x24 = 0; * case non land  (3,0)
+1 x59 = 1; * case sea  (3,1)
+1 x60 = 0; * case non land  (3,1)
+1 x95 = 1; * case sea  (3,2)
+1 x96 = 0; * case non land  (3,2)
+1 x94 = 1; * R sur la case 3,2
+1 x91 +1 x92 +1 x93  = 0; * les autres animaux ne sont pas sur la case 3,2
+1 x49 +1 x85 +1 x121 +1 x55 +1 x127 +1 x61 +1 x97 +1 x133 = 1; * voisinage animal T de la case (3,2)
+1 x50 +1 x86 +1 x122 +1 x56 +1 x128 +1 x62 +1 x98 +1 x134 = 0; * voisinage animal S de la case (3,2)
+1 x51 +1 x87 +1 x123 +1 x57 +1 x129 +1 x63 +1 x99 +1 x135 = 0; * voisinage animal C de la case (3,2)
+1 x126 = 1; * case land (2,3)
+1 x125 = 0; * case non sea  (2,3)
+1 x131 = 1; * case sea  (3,3)
+1 x132 = 0; * case non land  (3,3)
+1 x65 = 1; * case sea  (4,1)
+1 x66 = 0; * case non land  (4,1)
+1 x101 = 1; * case sea  (4,2)
+1 x102 = 0; * case non land  (4,2)
+1 x138 = 1; * case land (4,3)
+1 x137 = 0; * case non sea  (4,3)
+1 x136 = 1; * R sur la case 4,3
+1 x133 +1 x134 +1 x135  = 0; * les autres animaux ne sont pas sur la case 4,3
+1 x91 +1 x127 +1 x163 +1 x97 +1 x169 +1 x103 +1 x139 +1 x175 = 0; * voisinage animal T de la case (4,3)
+1 x92 +1 x128 +1 x164 +1 x98 +1 x170 +1 x104 +1 x140 +1 x176 = 0; * voisinage animal S de la case (4,3)
+1 x93 +1 x129 +1 x165 +1 x99 +1 x171 +1 x105 +1 x141 +1 x177 = 2; * voisinage animal C de la case (4,3)
+1 x167 = 1; * case sea  (3,4)
+1 x168 = 0; * case non land  (3,4)
+1 x174 = 1; * case land (4,4)
+1 x173 = 0; * case non sea  (4,4)
+1 x107 = 1; * case sea  (5,2)
+1 x108 = 0; * case non land  (5,2)
+1 x144 = 1; * case land (5,3)
+1 x143 = 0; * case non sea  (5,3)
+1 x179 = 1; * case sea  (5,4)
+1 x180 = 0; * case non land  (5,4)
+1 x100 = 1; * R sur la case 4,2
+1 x97 +1 x98 +1 x99  = 0; * les autres animaux ne sont pas sur la case 4,2
+1 x55 +1 x91 +1 x127 +1 x61 +1 x133 +1 x67 +1 x103 +1 x139 = 0; * voisinage animal T de la case (4,2)
+1 x56 +1 x92 +1 x128 +1 x62 +1 x134 +1 x68 +1 x104 +1 x140 = 1; * voisinage animal S de la case (4,2)
+1 x57 +1 x93 +1 x129 +1 x63 +1 x135 +1 x69 +1 x105 +1 x141 = 2; * voisinage animal C de la case (4,2)
+1 x71 = 1; * case sea  (5,1)
+1 x72 = 0; * case non land  (5,1)
+1 x68 = 1; * S sur la case 5,1
+1 x67 +1 x69 +1 x70  = 0; * les autres animaux ne sont pas sur la case 5,1
+1 x178 = 1; * R sur la case 5,4
+1 x175 +1 x176 +1 x177  = 0; * les autres animaux ne sont pas sur la case 5,4
+1 x133 +1 x169 +1 x205 +1 x139 +1 x211 = 0; * voisinage animal T de la case (5,4)
+1 x134 +1 x170 +1 x206 +1 x140 +1 x212 = 0; * voisinage animal S de la case (5,4)
+1 x135 +1 x171 +1 x207 +1 x141 +1 x213 = 1; * voisinage animal C de la case (5,4)
+1 x210 = 1; * case land (4,5)
+1 x209 = 0; * case non sea  (4,5)
+1 x215 = 1; * case sea  (5,5)
+1 x216 = 0; * case non land  (5,5)
+1 x214 = 1; * R sur la case 5,5
+1 x211 +1 x212 +1 x213  = 0; * les autres animaux ne sont pas sur la case 5,5
+1 x169 +1 x205 +1 x241 +1 x175 +1 x247 = 1; * voisinage animal T de la case (5,5)
+1 x170 +1 x206 +1 x242 +1 x176 +1 x248 = 0; * voisinage animal S de la case (5,5)
+1 x171 +1 x207 +1 x243 +1 x177 +1 x249 = 0; * voisinage animal C de la case (5,5)
+1 x245 = 1; * case sea  (4,6)
+1 x246 = 0; * case non land  (4,6)
+1 x252 = 1; * case land (5,6)
+1 x251 = 0; * case non sea  (5,6)
+1 x247 = 1; * T sur la case 5,6
+1 x248 +1 x249 +1 x250  = 0; * les autres animaux ne sont pas sur la case 5,6
+1 x244 = 1; * R sur la case 4,6
+1 x241 +1 x242 +1 x243  = 0; * les autres animaux ne sont pas sur la case 4,6
+1 x199 +1 x235 +1 x271 +1 x205 +1 x277 +1 x211 +1 x247 +1 x283 = 1; * voisinage animal T de la case (4,6)
+1 x200 +1 x236 +1 x272 +1 x206 +1 x278 +1 x212 +1 x248 +1 x284 = 0; * voisinage animal S de la case (4,6)
+1 x201 +1 x237 +1 x273 +1 x207 +1 x279 +1 x213 +1 x249 +1 x285 = 0; * voisinage animal C de la case (4,6)
+1 x203 = 1; * case sea  (3,5)
+1 x204 = 0; * case non land  (3,5)
+1 x239 = 1; * case sea  (3,6)
+1 x240 = 0; * case non land  (3,6)
+1 x275 = 1; * case sea  (3,7)
+1 x276 = 0; * case non land  (3,7)
+1 x281 = 1; * case sea  (4,7)
+1 x282 = 0; * case non land  (4,7)
+1 x288 = 1; * case land (5,7)
+1 x287 = 0; * case non sea  (5,7)
+1 x286 = 1; * R sur la case 5,7
+1 x283 +1 x284 +1 x285  = 0; * les autres animaux ne sont pas sur la case 5,7
+1 x241 +1 x277 +1 x247 = 1; * voisinage animal T de la case (5,7)
+1 x242 +1 x278 +1 x248 = 0; * voisinage animal S de la case (5,7)
+1 x243 +1 x279 +1 x249 = 0; * voisinage animal C de la case (5,7)
+1 x280 = 1; * R sur la case 4,7
+1 x277 +1 x278 +1 x279  = 0; * les autres animaux ne sont pas sur la case 4,7
+1 x235 +1 x271 +1 x241 +1 x247 +1 x283 = 1; * voisinage animal T de la case (4,7)
+1 x236 +1 x272 +1 x242 +1 x248 +1 x284 = 0; * voisinage animal S de la case (4,7)
+1 x237 +1 x273 +1 x243 +1 x249 +1 x285 = 0; * voisinage animal C de la case (4,7)
+1 x274 = 1; * R sur la case 3,7
+1 x271 +1 x272 +1 x273  = 0; * les autres animaux ne sont pas sur la case 3,7
+1 x229 +1 x265 +1 x235 +1 x241 +1 x277 = 0; * voisinage animal T de la case (3,7)
+1 x230 +1 x266 +1 x236 +1 x242 +1 x278 = 0; * voisinage animal S de la case (3,7)
+1 x231 +1 x267 +1 x237 +1 x243 +1 x279 = 0; * voisinage animal C de la case (3,7)
+1 x233 = 1; * case sea  (2,6)
+1 x234 = 0; * case non land  (2,6)
+1 x269 = 1; * case sea  (2,7)
+1 x270 = 0; * case non land  (2,7)
+1 x268 = 1; * R sur la case 2,7
+1 x265 +1 x266 +1 x267  = 0; * les autres animaux ne sont pas sur la case 2,7
+1 x223 +1 x259 +1 x229 +1 x235 +1 x271 = 1; * voisinage animal T de la case (2,7)
+1 x224 +1 x260 +1 x230 +1 x236 +1 x272 = 0; * voisinage animal S de la case (2,7)
+1 x225 +1 x261 +1 x231 +1 x237 +1 x273 = 0; * voisinage animal C de la case (2,7)
+1 x228 = 1; * case land (1,6)
+1 x227 = 0; * case non sea  (1,6)
+1 x264 = 1; * case land (1,7)
+1 x263 = 0; * case non sea  (1,7)
+1 x232 = 1; * R sur la case 2,6
+1 x229 +1 x230 +1 x231  = 0; * les autres animaux ne sont pas sur la case 2,6
+1 x187 +1 x223 +1 x259 +1 x193 +1 x265 +1 x199 +1 x235 +1 x271 = 2; * voisinage animal T de la case (2,6)
+1 x188 +1 x224 +1 x260 +1 x194 +1 x266 +1 x200 +1 x236 +1 x272 = 1; * voisinage animal S de la case (2,6)
+1 x189 +1 x225 +1 x261 +1 x195 +1 x267 +1 x201 +1 x237 +1 x273 = 0; * voisinage animal C de la case (2,6)
+1 x192 = 1; * case land (1,5)
+1 x191 = 0; * case non sea  (1,5)
+1 x197 = 1; * case sea  (2,5)
+1 x198 = 0; * case non land  (2,5)
+1 x194 = 1; * S sur la case 2,5
+1 x193 +1 x195 +1 x196  = 0; * les autres animaux ne sont pas sur la case 2,5
+1 x187 = 1; * T sur la case 1,5
+1 x188 +1 x189 +1 x190  = 0; * les autres animaux ne sont pas sur la case 1,5
+1 x238 = 1; * R sur la case 3,6
+1 x235 +1 x236 +1 x237  = 0; * les autres animaux ne sont pas sur la case 3,6
+1 x193 +1 x229 +1 x265 +1 x199 +1 x271 +1 x205 +1 x241 +1 x277 = 0; * voisinage animal T de la case (3,6)
+1 x194 +1 x230 +1 x266 +1 x200 +1 x272 +1 x206 +1 x242 +1 x278 = 1; * voisinage animal S de la case (3,6)
+1 x195 +1 x231 +1 x267 +1 x201 +1 x273 +1 x207 +1 x243 +1 x279 = 0; * voisinage animal C de la case (3,6)
+1 x202 = 1; * R sur la case 3,5
+1 x199 +1 x200 +1 x201  = 0; * les autres animaux ne sont pas sur la case 3,5
+1 x157 +1 x193 +1 x229 +1 x163 +1 x235 +1 x169 +1 x205 +1 x241 = 0; * voisinage animal T de la case (3,5)
+1 x158 +1 x194 +1 x230 +1 x164 +1 x236 +1 x170 +1 x206 +1 x242 = 1; * voisinage animal S de la case (3,5)
+1 x159 +1 x195 +1 x231 +1 x165 +1 x237 +1 x171 +1 x207 +1 x243 = 0; * voisinage animal C de la case (3,5)
+1 x162 = 1; * case land (2,4)
+1 x161 = 0; * case non sea  (2,4)
+1 x160 = 1; * R sur la case 2,4
+1 x157 +1 x158 +1 x159  = 0; * les autres animaux ne sont pas sur la case 2,4
+1 x115 +1 x151 +1 x187 +1 x121 +1 x193 +1 x127 +1 x163 +1 x199 = 1; * voisinage animal T de la case (2,4)
+1 x116 +1 x152 +1 x188 +1 x122 +1 x194 +1 x128 +1 x164 +1 x200 = 1; * voisinage animal S de la case (2,4)
+1 x117 +1 x153 +1 x189 +1 x123 +1 x195 +1 x129 +1 x165 +1 x201 = 0; * voisinage animal C de la case (2,4)
+1 x119 = 1; * case sea  (1,3)
+1 x120 = 0; * case non land  (1,3)
+1 x156 = 1; * case land (1,4)
+1 x155 = 0; * case non sea  (1,4)
+1 x154 = 1; * R sur la case 1,4
+1 x151 +1 x152 +1 x153  = 0; * les autres animaux ne sont pas sur la case 1,4
+1 x109 +1 x145 +1 x181 +1 x115 +1 x187 +1 x121 +1 x157 +1 x193 = 1; * voisinage animal T de la case (1,4)
+1 x110 +1 x146 +1 x182 +1 x116 +1 x188 +1 x122 +1 x158 +1 x194 = 1; * voisinage animal S de la case (1,4)
+1 x111 +1 x147 +1 x183 +1 x117 +1 x189 +1 x123 +1 x159 +1 x195 = 0; * voisinage animal C de la case (1,4)
+1 x113 = 1; * case sea  (0,3)
+1 x114 = 0; * case non land  (0,3)
+1 x150 = 1; * case land (0,4)
+1 x149 = 0; * case non sea  (0,4)
+1 x186 = 1; * case land (0,5)
+1 x185 = 0; * case non sea  (0,5)
+1 x184 = 1; * R sur la case 0,5
+1 x181 +1 x182 +1 x183  = 0; * les autres animaux ne sont pas sur la case 0,5
+1 x145 +1 x217 +1 x151 +1 x187 +1 x223 = 2; * voisinage animal T de la case (0,5)
+1 x146 +1 x218 +1 x152 +1 x188 +1 x224 = 0; * voisinage animal S de la case (0,5)
+1 x147 +1 x219 +1 x153 +1 x189 +1 x225 = 0; * voisinage animal C de la case (0,5)
+1 x222 = 1; * case land (0,6)
+1 x221 = 0; * case non sea  (0,6)
+1 x220 = 1; * R sur la case 0,6
+1 x217 +1 x218 +1 x219  = 0; * les autres animaux ne sont pas sur la case 0,6
+1 x181 +1 x253 +1 x187 +1 x223 +1 x259 = 2; * voisinage animal T de la case (0,6)
+1 x182 +1 x254 +1 x188 +1 x224 +1 x260 = 0; * voisinage animal S de la case (0,6)
+1 x183 +1 x255 +1 x189 +1 x225 +1 x261 = 1; * voisinage animal C de la case (0,6)
+1 x258 = 1; * case land (0,7)
+1 x257 = 0; * case non sea  (0,7)
+1 x255 = 1; * C sur la case 0,7
+1 x253 +1 x254 +1 x256  = 0; * les autres animaux ne sont pas sur la case 0,7
+1 x148 = 1; * R sur la case 0,4
+1 x145 +1 x146 +1 x147  = 0; * les autres animaux ne sont pas sur la case 0,4
+1 x109 +1 x181 +1 x115 +1 x151 +1 x187 = 1; * voisinage animal T de la case (0,4)
+1 x110 +1 x182 +1 x116 +1 x152 +1 x188 = 0; * voisinage animal S de la case (0,4)
+1 x111 +1 x183 +1 x117 +1 x153 +1 x189 = 0; * voisinage animal C de la case (0,4)
+1 x112 = 1; * R sur la case 0,3
+1 x109 +1 x110 +1 x111  = 0; * les autres animaux ne sont pas sur la case 0,3
+1 x73 +1 x145 +1 x79 +1 x115 +1 x151 = 0; * voisinage animal T de la case (0,3)
+1 x74 +1 x146 +1 x80 +1 x116 +1 x152 = 1; * voisinage animal S de la case (0,3)
+1 x75 +1 x147 +1 x81 +1 x117 +1 x153 = 1; * voisinage animal C de la case (0,3)
+1 x118 = 1; * R sur la case 1,3
+1 x115 +1 x116 +1 x117  = 0; * les autres animaux ne sont pas sur la case 1,3
+1 x73 +1 x109 +1 x145 +1 x79 +1 x151 +1 x85 +1 x121 +1 x157 = 1; * voisinage animal T de la case (1,3)
+1 x74 +1 x110 +1 x146 +1 x80 +1 x152 +1 x86 +1 x122 +1 x158 = 1; * voisinage animal S de la case (1,3)
+1 x75 +1 x111 +1 x147 +1 x81 +1 x153 +1 x87 +1 x123 +1 x159 = 1; * voisinage animal C de la case (1,3)
+1 x262 = 1; * R sur la case 1,7
+1 x259 +1 x260 +1 x261  = 0; * les autres animaux ne sont pas sur la case 1,7
+1 x217 +1 x253 +1 x223 +1 x229 +1 x265 = 1; * voisinage animal T de la case (1,7)
+1 x218 +1 x254 +1 x224 +1 x230 +1 x266 = 0; * voisinage animal S de la case (1,7)
+1 x219 +1 x255 +1 x225 +1 x231 +1 x267 = 1; * voisinage animal C de la case (1,7)
+1 x223 = 1; * T sur la case 1,6
+1 x224 +1 x225 +1 x226  = 0; * les autres animaux ne sont pas sur la case 1,6
+1 x208 = 1; * R sur la case 4,5
+1 x205 +1 x206 +1 x207  = 0; * les autres animaux ne sont pas sur la case 4,5
+1 x163 +1 x199 +1 x235 +1 x169 +1 x241 +1 x175 +1 x211 +1 x247 = 1; * voisinage animal T de la case (4,5)
+1 x164 +1 x200 +1 x236 +1 x170 +1 x242 +1 x176 +1 x212 +1 x248 = 0; * voisinage animal S de la case (4,5)
+1 x165 +1 x201 +1 x237 +1 x171 +1 x243 +1 x177 +1 x213 +1 x249 = 0; * voisinage animal C de la case (4,5)
+1 x141 = 1; * C sur la case 5,3
+1 x139 +1 x140 +1 x142  = 0; * les autres animaux ne sont pas sur la case 5,3
+1 x105 = 1; * C sur la case 5,2
+1 x103 +1 x104 +1 x106  = 0; * les autres animaux ne sont pas sur la case 5,2
+1 x172 = 1; * R sur la case 4,4
+1 x169 +1 x170 +1 x171  = 0; * les autres animaux ne sont pas sur la case 4,4
+1 x127 +1 x163 +1 x199 +1 x133 +1 x205 +1 x139 +1 x175 +1 x211 = 0; * voisinage animal T de la case (4,4)
+1 x128 +1 x164 +1 x200 +1 x134 +1 x206 +1 x140 +1 x176 +1 x212 = 0; * voisinage animal S de la case (4,4)
+1 x129 +1 x165 +1 x201 +1 x135 +1 x207 +1 x141 +1 x177 +1 x213 = 1; * voisinage animal C de la case (4,4)
+1 x166 = 1; * R sur la case 3,4
+1 x163 +1 x164 +1 x165  = 0; * les autres animaux ne sont pas sur la case 3,4
+1 x121 +1 x157 +1 x193 +1 x127 +1 x199 +1 x133 +1 x169 +1 x205 = 0; * voisinage animal T de la case (3,4)
+1 x122 +1 x158 +1 x194 +1 x128 +1 x200 +1 x134 +1 x170 +1 x206 = 1; * voisinage animal S de la case (3,4)
+1 x123 +1 x159 +1 x195 +1 x129 +1 x201 +1 x135 +1 x171 +1 x207 = 0; * voisinage animal C de la case (3,4)
+1 x64 = 1; * R sur la case 4,1
+1 x61 +1 x62 +1 x63  = 0; * les autres animaux ne sont pas sur la case 4,1
+1 x19 +1 x55 +1 x91 +1 x25 +1 x97 +1 x31 +1 x67 +1 x103 = 0; * voisinage animal T de la case (4,1)
+1 x20 +1 x56 +1 x92 +1 x26 +1 x98 +1 x32 +1 x68 +1 x104 = 2; * voisinage animal S de la case (4,1)
+1 x21 +1 x57 +1 x93 +1 x27 +1 x99 +1 x33 +1 x69 +1 x105 = 1; * voisinage animal C de la case (4,1)
+1 x29 = 1; * case sea  (4,0)
+1 x30 = 0; * case non land  (4,0)
+1 x35 = 1; * case sea  (5,0)
+1 x36 = 0; * case non land  (5,0)
+1 x130 = 1; * R sur la case 3,3
+1 x127 +1 x128 +1 x129  = 0; * les autres animaux ne sont pas sur la case 3,3
+1 x85 +1 x121 +1 x157 +1 x91 +1 x163 +1 x97 +1 x133 +1 x169 = 1; * voisinage animal T de la case (3,3)
+1 x86 +1 x122 +1 x158 +1 x92 +1 x164 +1 x98 +1 x134 +1 x170 = 0; * voisinage animal S de la case (3,3)
+1 x87 +1 x123 +1 x159 +1 x93 +1 x165 +1 x99 +1 x135 +1 x171 = 0; * voisinage animal C de la case (3,3)
+1 x124 = 1; * R sur la case 2,3
+1 x121 +1 x122 +1 x123  = 0; * les autres animaux ne sont pas sur la case 2,3
+1 x79 +1 x115 +1 x151 +1 x85 +1 x157 +1 x91 +1 x127 +1 x163 = 1; * voisinage animal T de la case (2,3)
+1 x80 +1 x116 +1 x152 +1 x86 +1 x158 +1 x92 +1 x128 +1 x164 = 0; * voisinage animal S de la case (2,3)
+1 x81 +1 x117 +1 x153 +1 x87 +1 x159 +1 x93 +1 x129 +1 x165 = 1; * voisinage animal C de la case (2,3)
+1 x58 = 1; * R sur la case 3,1
+1 x55 +1 x56 +1 x57  = 0; * les autres animaux ne sont pas sur la case 3,1
+1 x13 +1 x49 +1 x85 +1 x19 +1 x91 +1 x25 +1 x61 +1 x97 = 1; * voisinage animal T de la case (3,1)
+1 x14 +1 x50 +1 x86 +1 x20 +1 x92 +1 x26 +1 x62 +1 x98 = 1; * voisinage animal S de la case (3,1)
+1 x15 +1 x51 +1 x87 +1 x21 +1 x93 +1 x27 +1 x63 +1 x99 = 0; * voisinage animal C de la case (3,1)
+1 x32 = 1; * S sur la case 5,0
+1 x31 +1 x33 +1 x34  = 0; * les autres animaux ne sont pas sur la case 5,0
+1 x28 = 1; * R sur la case 4,0
+1 x25 +1 x26 +1 x27  = 0; * les autres animaux ne sont pas sur la case 4,0
+1 x19 +1 x55 +1 x61 +1 x31 +1 x67 = 0; * voisinage animal T de la case (4,0)
+1 x20 +1 x56 +1 x62 +1 x32 +1 x68 = 2; * voisinage animal S de la case (4,0)
+1 x21 +1 x57 +1 x63 +1 x33 +1 x69 = 0; * voisinage animal C de la case (4,0)
+1 x22 = 1; * R sur la case 3,0
+1 x19 +1 x20 +1 x21  = 0; * les autres animaux ne sont pas sur la case 3,0
+1 x13 +1 x49 +1 x55 +1 x25 +1 x61 = 0; * voisinage animal T de la case (3,0)
+1 x14 +1 x50 +1 x56 +1 x26 +1 x62 = 1; * voisinage animal S de la case (3,0)
+1 x15 +1 x51 +1 x57 +1 x27 +1 x63 = 0; * voisinage animal C de la case (3,0)
+1 x85 = 1; * T sur la case 2,2
+1 x86 +1 x87 +1 x88  = 0; * les autres animaux ne sont pas sur la case 2,2
+1 x81 = 1; * C sur la case 1,2
+1 x79 +1 x80 +1 x82  = 0; * les autres animaux ne sont pas sur la case 1,2
+1 x40 = 1; * R sur la case 0,1
+1 x37 +1 x38 +1 x39  = 0; * les autres animaux ne sont pas sur la case 0,1
+1 x1 +1 x73 +1 x7 +1 x43 +1 x79 = 0; * voisinage animal T de la case (0,1)
+1 x2 +1 x74 +1 x8 +1 x44 +1 x80 = 1; * voisinage animal S de la case (0,1)
+1 x3 +1 x75 +1 x9 +1 x45 +1 x81 = 1; * voisinage animal C de la case (0,1)
